=obj=  1480195

             C0004         1082.000000
             C0008         1207.000000
             C0016         1918.000000
             C0029         1328.000000
             C0041         2118.000000
             C0052         2157.000000
             C0057            0.000000
             C0062          966.000000
             C0066            0.000000
             C0067          987.000000
             C0074         1144.000000
             C0087         2175.000000
             C0090            0.000000
             C0092           -0.000000
             C0098         1536.000000
             C0102           -0.000000
             C0106           -0.000000
             C0109          877.000000
             C0117          803.000000
             C0125         2350.000000
             C0129           -0.000000
             C0133           -0.000000
             C0138         1712.000000
             C0157         1860.000000
             C0159            0.000000
             C0161           -0.000000
             C0162         1539.000000
             C0173         1582.000000
             C0185         2006.000000
             C0199          703.000000
             C0200            0.000000
             C0205         1207.000000
             C0212         1970.000000
             C0226         1416.000000
             C0239          186.000000
             C0246         1672.000000
             C0253         1564.000000
             C0256            0.000000
             C0263         2992.000000
             C0274          976.000000
             C0279         1338.000000
             C0285            0.000000
             C0286         1406.000000
             C0295          965.000000
             C0301          609.000000
             C0306          849.000000
             C0312         2374.000000
             C0314            0.000000
             C0328         1543.000000
             C0336         1029.000000
             C0345         1061.000000
             C0354         1008.000000
             C0361          964.000000
             C0369          951.000000
             C0374          875.000000
             C0375            0.000000
             C0380         2426.000000
             C0392         1051.000000
             C0398          987.000000
             C0408         2390.000000
             C0423         1659.000000
             C0425           -0.000000
             C0429         2301.000000
             C0442         1391.000000
             C0454         1300.000000
             C0463         1033.000000
             C0467         1023.000000
             C0476          918.000000
             C0482         1127.000000
             C0492         2035.000000
             C0502         1587.000000
             C0511          940.000000
             C0520          759.000000
             C0524         1206.000000
             C0534         1816.000000
             C0544         1391.000000
             C0545            0.000000
             C0548           -0.000000
             C0550         1137.000000
             C0552            0.000000
             C0554            0.000000
             C0557          998.000000
             C0559           -0.000000
             C0560         1397.000000
             C0562            0.000000
             C0564            0.000000
             C0566         1579.000000
             C0568            0.000000
             C0570            0.000000
             C0571           -0.000000
             C0575           -0.000000
             C0577          610.000000
             C0580           -0.000000
             C0581         1989.000000
             C0591         1448.000000
             C0601          163.000000
             C0602          307.000000
             C0603          433.000000
             C0639          206.000000
             C0640          443.000000
             C0650          290.000000
             C0651          474.000000
             C0683          262.000000
             C0684          501.000000
             C0685          646.000000
             C0686          813.000000
             C0716          283.000000
             C0720           84.000000
             C0721          229.000000
             C0722          450.000000
             C0723          537.000000
             C0736          200.000000
             C0750          261.000000
             C0751          545.000000
             C0752          749.000000
             C0753          843.000000
             C0754         1002.000000
             C0755         1032.000000
             C0783          202.000000
             C0839           68.000000
             C0840          209.000000
             C0841          365.000000
             C0842          584.000000
             C0843          737.000000
             C0850          251.000000
             C0858          295.000000
             C0859          572.000000
             C0860          808.000000
             C0871          240.000000
             C0892          207.000000
             C0925          113.000000
             C0975          296.000000
             C0976          542.000000
             C1002          220.000000
             C1003          455.000000
             C1004          495.000000
             C1017          191.000000
             C1018          223.000000
             C1019          496.000000
             C1050          229.000000
             C1058          240.000000
             C1059          507.000000
             C1072          191.000000
             C1077          237.000000
             C1085          254.000000
             C1086          495.000000
             C1087          660.000000
             C1096          258.000000
             C1097          448.000000
             C1115          172.000000
             C1128          291.000000
             C1129          470.000000
             C1139          247.000000
             C1151          258.000000
             C1152          458.000000
             C1199          453.000000
             C1200          349.000000
             C1201          148.000000
             C1203          933.000000
             C1204          746.000000
             C1205          725.000000
             C1206          546.000000
             C1207          339.000000
             C1208          287.000000
             C1209           80.000000
             C1211         1636.000000
             C1212         1361.000000
             C1213         1127.000000
             C1214          990.000000
             C1215          913.000000
             C1216          863.000000
             C1217          708.000000
             C1218          446.000000
             C1219          423.000000
             C1220          269.000000
             C1221           36.000000
             C1222           17.000000
             C1224         1212.000000
             C1225         1045.000000
             C1226         1027.000000
             C1227          896.000000
             C1228          771.000000
             C1229          549.000000
             C1230          304.000000
             C1231           53.000000
             C1232           38.000000
             C1236         1407.000000
             C1237         1114.000000
             C1238          947.000000
             C1239          806.000000
             C1240          678.000000
             C1241          513.000000
             C1242          359.000000
             C1243          143.000000
             C1247         1421.000000
             C1248         1183.000000
             C1249         1122.000000
             C1250          927.000000
             C1251          785.000000
             C1252          498.000000
             C1253          331.000000
             C1254           55.000000
             C1255           28.000000
             C1257          725.000000
             C1258          507.000000
             C1259          360.000000
             C1260          140.000000
             C1262          946.000000
             C1263          839.000000
             C1264          595.000000
             C1265          336.000000
             C1266          239.000000
             C1267          199.000000
             C1269          880.000000
             C1270          694.000000
             C1271          594.000000
             C1272          538.000000
             C1273          276.000000
             C1274          203.000000
             C1275          150.000000
             C1276           31.000000
             C1277            0.000000
             C1279            0.000000
             C1281            0.000000
             C1282         1230.000000
             C1283         1153.000000
             C1284         1096.000000
             C1285         1013.000000
             C1286          749.000000
             C1287          683.000000
             C1288          435.000000
             C1289          245.000000
             C1290          137.000000
             C1291           61.000000
             C1292            0.000000
             C1293         1421.000000
             C1294         1239.000000
             C1295         1134.000000
             C1296          886.000000
             C1297          727.000000
             C1298          471.000000
             C1299          416.000000
             C1300          367.000000
             C1301          219.000000
             C1302          180.000000
             C1303           -0.000000
             C1304          816.000000
             C1305          755.000000
             C1306          648.000000
             C1307          558.000000
             C1308          381.000000
             C1309          147.000000
             C1311            0.000000
             C1312          506.000000
             C1313          262.000000
             C1314          112.000000
             C1319         1792.000000
             C1320         1684.000000
             C1321         1455.000000
             C1322         1370.000000
             C1323         1252.000000
             C1324         1208.000000
             C1325         1089.000000
             C1326          835.000000
             C1327          581.000000
             C1328          341.000000
             C1329          126.000000
             C1330           -0.000000
             C1332         1456.000000
             C1333         1341.000000
             C1334         1293.000000
             C1335         1270.000000
             C1336          980.000000
             C1337          800.000000
             C1338          591.000000
             C1339          437.000000
             C1340          250.000000
             C1341          102.000000
             C1342           44.000000
             C1343           13.000000
             C1351          605.000000
             C1352          339.000000
             C1353          135.000000
             C1354          108.000000
             C1356         1526.000000
             C1357         1301.000000
             C1358         1105.000000
             C1359          826.000000
             C1360          600.000000
             C1361          521.000000
             C1362          445.000000
             C1363          326.000000
             C1364          158.000000
             C1365           10.000000
             C1366           -0.000000
             C1367         1543.000000
             C1368         1317.000000
             C1369         1052.000000
             C1370         1016.000000
             C1371          954.000000
             C1372          831.000000
             C1373          583.000000
             C1374          381.000000
             C1375          277.000000
             C1376           28.000000
             C1379         1639.000000
             C1380         1465.000000
             C1381         1207.000000
             C1382         1015.000000
             C1383          977.000000
             C1384          849.000000
             C1385          667.000000
             C1386          581.000000
             C1387          511.000000
             C1388          497.000000
             C1389          244.000000
             C1390          146.000000
             C1391           60.000000
             C1393          677.000000
             C1394          388.000000
             C1395          290.000000
             C1396          186.000000
             C1397          107.000000
             C1398            0.000000
             C1399         1026.000000
             C1400          938.000000
             C1401          665.000000
             C1402          611.000000
             C1403          429.000000
             C1404          178.000000
             C1406         1748.000000
             C1407         1455.000000
             C1408         1270.000000
             C1409          982.000000
             C1410          881.000000
             C1411          781.000000
             C1412          670.000000
             C1413          510.000000
             C1414          280.000000
             C1415          188.000000
             C1416          138.000000
             C1417           93.000000
             C1418           60.000000
             C1420         1387.000000
             C1421         1214.000000
             C1422         1036.000000
             C1423          952.000000
             C1424          849.000000
             C1425          662.000000
             C1426          617.000000
             C1427          444.000000
             C1428          337.000000
             C1429          224.000000
             C1430           53.000000
             C1431           18.000000
             C1432           -0.000000
             C1433          168.000000
             C1439          722.000000
             C1440          706.000000
             C1441          477.000000
             C1442          273.000000
             C1443           90.000000
             C1444           -0.000000
             C1446         1172.000000
             C1447         1015.000000
             C1448          886.000000
             C1449          593.000000
             C1450          386.000000
             C1451          215.000000
             C1453            0.000000
             C1456         1888.000000
             C1457         1613.000000
             C1458         1339.000000
             C1459         1068.000000
             C1460          787.000000
             C1461          560.000000
             C1462          503.000000
             C1463          208.000000
             C1464           87.000000
             C1466           -0.000000
             C1467          516.000000
             C1468          275.000000
             C1469          186.000000
             C1470           10.000000
             C1472         1119.000000
             C1473          821.000000
             C1474          626.000000
             C1475          575.000000
             C1476          276.000000
             C1477           30.000000
             C1479         1249.000000
             C1480          968.000000
             C1481          776.000000
             C1482          508.000000
             C1483          461.000000
             C1484          338.000000
             C1485          140.000000
             C1488          466.000000
             C1489          453.000000
             C1490          300.000000
             C1491          172.000000
             C1492          108.000000
             C1494          510.000000
             C1495          340.000000
             C1496          249.000000
             C1497          176.000000
             C1499          706.000000
             C1500          657.000000
             C1501          419.000000
             C1502          298.000000
             C1503           76.000000
             C1505         2192.000000
             C1506         1898.000000
             C1507         1631.000000
             C1508         1340.000000
             C1509         1166.000000
             C1510         1027.000000
             C1511          931.000000
             C1512          784.000000
             C1513          742.000000
             C1514          626.000000
             C1515          418.000000
             C1516          212.000000
             C1517           81.000000
             C1518           42.000000
             C1521         1268.000000
             C1522         1011.000000
             C1523          959.000000
             C1524          837.000000
             C1525          539.000000
             C1526          500.000000
             C1527          240.000000
             C1529         1014.000000
             C1530          871.000000
             C1531          726.000000
             C1532          437.000000
             C1533          385.000000
             C1534          365.000000
             C1535          205.000000
             C1536           96.000000
             C1538          808.000000
             C1539          719.000000
             C1540          559.000000
             C1541          445.000000
             C1542          282.000000
             C1543          248.000000
             C1544          129.000000
             C1545           19.000000
             C1547          808.000000
             C1548          652.000000
             C1549          582.000000
             C1550          489.000000
             C1551          245.000000
             C1552           92.000000
             C1553          895.000000
             C1554          773.000000
             C1555          733.000000
             C1556          492.000000
             C1557          300.000000
             C1558          225.000000
             C1559           25.000000
             C1561          746.000000
             C1562          611.000000
             C1563          313.000000
             C1564          106.000000
             C1566          668.000000
             C1567          461.000000
             C1568          192.000000
             C1571            0.000000
             C1572         1676.000000
             C1573         1391.000000
             C1574         1316.000000
             C1575         1295.000000
             C1576         1058.000000
             C1577          942.000000
             C1578          779.000000
             C1579          529.000000
             C1580          350.000000
             C1581           71.000000
             C1582           43.000000
             C1584          945.000000
             C1585          662.000000
             C1586          446.000000
             C1587          247.000000
             C1588           50.000000
             C1589            0.000000
             C1590          721.000000
             C1591          603.000000
             C1592          355.000000
             C1593          181.000000
             C1594          147.000000
             C1595          130.000000
             C1600         1779.000000
             C1601         1722.000000
             C1602         1448.000000
             C1603         1149.000000
             C1604         1063.000000
             C1605          959.000000
             C1606          778.000000
             C1607          575.000000
             C1608          464.000000
             C1609          205.000000
             C1610           18.000000
             C1612            0.000000
             C1615         1042.000000
             C1616          835.000000
             C1617          709.000000
             C1618          523.000000
             C1619          276.000000
             C1621         2004.000000
             C1622         1705.000000
             C1623         1523.000000
             C1624         1372.000000
             C1625         1160.000000
             C1626          985.000000
             C1627          705.000000
             C1628          546.000000
             C1629          371.000000
             C1630          238.000000
             C1631          109.000000
             C1632           24.000000
             C1634         1284.000000
             C1635         1130.000000
             C1636         1017.000000
             C1637          780.000000
             C1638          714.000000
             C1639          629.000000
             C1640          432.000000
             C1641          215.000000
             C1642          189.000000
             C1643           18.000000
             C1645            0.000000
             C1646          902.000000
             C1647          828.000000
             C1648          725.000000
             C1649          465.000000
             C1650          370.000000
             C1651          121.000000
             C1655          303.000000
             C1656           93.000000
             C1657           42.000000
             C1659          734.000000
             C1660          716.000000
             C1661          535.000000
             C1662          426.000000
             C1663          338.000000
             C1664          236.000000
             C1665          133.000000
             C1668          635.000000
             C1669          401.000000
             C1670          381.000000
             C1671          119.000000
             C1673          842.000000
             C1674          589.000000
             C1675          452.000000
             C1676          420.000000
             C1677          399.000000
             C1678          147.000000
             C1683         1258.000000
             C1684         1005.000000
             C1685          846.000000
             C1686          587.000000
             C1687          395.000000
             C1688          360.000000
             C1689           89.000000
             C1692            0.000000
             C1693          944.000000
             C1694          820.000000
             C1695          705.000000
             C1696          599.000000
             C1697          325.000000
             C1698          192.000000
             C1699          116.000000
             C1700           76.000000
             C1702          903.000000
             C1703          876.000000
             C1704          638.000000
             C1705          415.000000
             C1706          277.000000
             C1707          249.000000
             C1708           67.000000
             C1711          553.000000
             C1712          379.000000
             C1713          283.000000
             C1715         1151.000000
             C1716          916.000000
             C1717          837.000000
             C1718          601.000000
             C1719          485.000000
             C1720          288.000000
             C1721          208.000000
             C1725         1223.000000
             C1726          925.000000
             C1727          794.000000
             C1728          527.000000
             C1729          500.000000
             C1730          273.000000
             C1731          193.000000
             C1732          115.000000
             C1735          859.000000
             C1736          631.000000
             C1737          570.000000
             C1738          426.000000
             C1739          270.000000
             C1740           -0.000000
             C1741          897.000000
             C1742          628.000000
             C1743          445.000000
             C1744          214.000000
             C1746            0.000000
             C1748          379.000000
             C1749          142.000000
             C1750           -0.000000
             C1751         1270.000000
             C1752          991.000000
             C1753          707.000000
             C1754          485.000000
             C1755          217.000000
             C1756            0.000000
             C1757         1448.000000
             C1758         1308.000000
             C1759         1272.000000
             C1760         1077.000000
             C1761          811.000000
             C1762          621.000000
             C1763          445.000000
             C1764          196.000000
             C1765          153.000000
             C1766           81.000000
             C1767           -0.000000
             C1768          394.000000
             C1769          331.000000
             C1770          266.000000
             C1772         1835.000000
             C1773         1544.000000
             C1774         1293.000000
             C1775         1008.000000
             C1776          806.000000
             C1777          655.000000
             C1778          386.000000
             C1779          283.000000
             C1780          152.000000
             C1782         1268.000000
             C1783         1115.000000
             C1784          994.000000
             C1785          700.000000
             C1786          419.000000
             C1787          290.000000
             C1788          263.000000
             C1789          149.000000
             C1790           70.000000
             C1794            1.000000
             C1798            1.000000
             C1806            1.000000
             C1819            1.000000
             C1831            1.000000
             C1842            1.000000
             C1852            1.000000
             C1857            1.000000
             C1864            1.000000
             C1877            1.000000
             C1888            1.000000
             C1899            1.000000
             C1907            1.000000
             C1915            1.000000
             C1928            1.000000
             C1947            1.000000
             C1952            1.000000
             C1963            1.000000
             C1975            1.000000
             C1989            1.000000
             C1995            1.000000
             C2002            1.000000
             C2016            1.000000
             C2029            1.000000
             C2036            1.000000
             C2043            1.000000
             C2053            1.000000
             C2064            1.000000
             C2069            1.000000
             C2076            1.000000
             C2085            1.000000
             C2091            1.000000
             C2096            1.000000
             C2102            1.000000
             C2118            1.000000
             C2126            1.000000
             C2135            1.000000
             C2144            1.000000
             C2151            1.000000
             C2159            1.000000
             C2164            1.000000
             C2170            1.000000
             C2182            1.000000
             C2188            1.000000
             C2198            1.000000
             C2213            1.000000
             C2219            1.000000
             C2232            1.000000
             C2244            1.000000
             C2253            1.000000
             C2257            1.000000
             C2266            1.000000
             C2272            1.000000
             C2282            1.000000
             C2292            1.000000
             C2301            1.000000
             C2310            1.000000
             C2314            1.000000
             C2324            1.000000
             C2334            1.000000
             C2340            1.000000
             C2347            1.000000
             C2350            1.000000
             C2356            1.000000
             C2367            1.000000
             C2371            1.000000
             C2381            1.000000
             C2391            1.000000
             C2392            1.000000
             C2393            1.000000
             C2429            1.000000
             C2430            1.000000
             C2440            1.000000
             C2441            1.000000
             C2473            1.000000
             C2474            1.000000
             C2475            1.000000
             C2476            1.000000
             C2506            1.000000
             C2510            1.000000
             C2511            1.000000
             C2512            1.000000
             C2513            1.000000
             C2526            1.000000
             C2540            1.000000
             C2541            1.000000
             C2542            1.000000
             C2543            1.000000
             C2544            1.000000
             C2545            1.000000
             C2573            1.000000
             C2629            1.000000
             C2630            1.000000
             C2631            1.000000
             C2632            1.000000
             C2633            1.000000
             C2640            1.000000
             C2648            1.000000
             C2649            1.000000
             C2650            1.000000
             C2661            1.000000
             C2682            1.000000
             C2715            1.000000
             C2765            1.000000
             C2766            1.000000
             C2792            1.000000
             C2793            1.000000
             C2794            1.000000
             C2807            1.000000
             C2808            1.000000
             C2809            1.000000
             C2840            1.000000
             C2848            1.000000
             C2849            1.000000
             C2862            1.000000
             C2867            1.000000
             C2875            1.000000
             C2876            1.000000
             C2877            1.000000
             C2886            1.000000
             C2887            1.000000
             C2905            1.000000
             C2918            1.000000
             C2919            1.000000
             C2929            1.000000
             C2941            1.000000
             C2942            1.000000
